(set-logic QF_S)
(declare-fun var0 () String)
(declare-fun var1 () String)
(declare-fun var2 () String)
(declare-fun var3 () String)
(declare-fun var4 () String)
(declare-fun var5 () String)
(declare-fun var6 () String)
(declare-fun var7 () String)
(declare-fun var8 () String)
(declare-fun var9 () String)
(declare-fun var10 () String)
(declare-fun var11 () String)
(declare-fun var12 () String)
(declare-fun var13 () String)
(declare-fun var14 () String)
(declare-fun var15 () String)
(declare-fun var16 () String)
(declare-fun var17 () String)
(declare-fun var18 () String)
(declare-fun var19 () String)
(declare-fun var20 () String)
(declare-fun var21 () String)
(declare-fun var22 () String)
(declare-fun var23 () String)
(declare-fun var24 () String)
(declare-fun var25 () String)
(declare-fun var26 () String)
(declare-fun var27 () String)
(declare-fun var28 () String)
(declare-fun var29 () String)
(declare-fun var30 () String)
(declare-fun var31 () String)
(declare-fun var32 () String)
(declare-fun var33 () String)
(declare-fun var34 () String)
(declare-fun var35 () String)
(declare-fun var36 () String)
(declare-fun var37 () String)
(declare-fun var38 () String)
(declare-fun var39 () String)
(declare-fun var40 () String)
(declare-fun var41 () String)
(declare-fun var42 () String)
(declare-fun var43 () String)
(declare-fun var44 () String)
(declare-fun var45 () String)
(declare-fun var46 () String)
(declare-fun var47 () String)
(declare-fun var48 () String)
(declare-fun var49 () String)
(declare-fun var50 () String)
(declare-fun var51 () String)
(declare-fun var52 () String)
(declare-fun var53 () String)
(declare-fun var54 () String)
(declare-fun var55 () String)
(declare-fun var56 () String)
(declare-fun var57 () String)
(declare-fun var58 () String)
(declare-fun var59 () String)
(declare-fun var60 () String)
(assert (= var0 (Concat var1 var2)))
(assert (= var2 (Concat var3 var4)))
(assert (= var4 (Concat var5 var6)))
(assert (= var6 (Concat var7 var8)))
(assert (= var8 (Concat var9 var10)))
(assert (= var10 (Concat var11 var12)))
(assert (= var12 (Concat var13 var14)))
(assert (= var14 (Concat var15 var16)))
(assert (= var16 (Concat var17 var18)))
(assert (= var18 (Concat var19 var20)))
(assert (= var20 (Concat var21 var22)))
(assert (= var22 (Concat var23 var24)))
(assert (= var24 (Concat var25 var26)))
(assert (= var26 (Concat var27 var28)))
(assert (= var28 (Concat var29 var30)))
(assert (= var30 (Concat var31 var32)))
(assert (= var32 (Concat var33 var34)))
(assert (= var34 (Concat var35 var36)))
(assert (= var36 (Concat var37 var38)))
(assert (= var38 (Concat var39 var40)))
(assert (= var40 (Concat var41 var42)))
(assert (= var42 (Concat var43 var44)))
(assert (= var44 (Concat var45 var46)))
(assert (= var46 (Concat var47 var48)))
(assert (= var48 (Concat var49 var50)))
(assert (= var50 (Concat var51 var52)))
(assert (= var52 (Concat var53 var54)))
(assert (= var54 (Concat var55 var56)))
(assert (= var56 (Concat var57 var58)))
(assert (= var58 (Concat var59 var60)))
(assert (= var0 "solution"))
(assert (= "=" (CharAt var53 89)))
(assert (= "T" (CharAt var37 124)))
(assert (= "J" (CharAt var27 296)))
(assert (= ")" (CharAt var5 549)))
(assert (= "u" (CharAt var57 766)))
(assert (= "D" (CharAt var57 170)))
(assert (= "i" (CharAt var18 90)))
(assert (= "p" (CharAt var30 529)))
(assert (= "2" (CharAt var14 518)))
(assert (= "{" (CharAt var53 979)))
(assert (= "r" (CharAt var3 195)))
(assert (= "B" (CharAt var4 744)))
(assert (= "L" (CharAt var25 633)))
(assert (= "K" (CharAt var9 297)))
(assert (= "V" (CharAt var12 324)))
(assert (= "(" (CharAt var41 150)))
(assert (= "!" (CharAt var17 836)))
(assert (= ";" (CharAt var23 808)))
(assert (= "t" (CharAt var49 687)))
(assert (= "'" (CharAt var33 351)))
(assert (= "s" (CharAt var40 419)))
(assert (= "%" (CharAt var49 831)))
(assert (= "3" (CharAt var13 943)))
(assert (= "t" (CharAt var6 754)))
(assert (= "T" (CharAt var7 71)))
(assert (= "r" (CharAt var58 419)))
(assert (= "w" (CharAt var44 235)))
(assert (= "E" (CharAt var26 792)))
(assert (= "9" (CharAt var18 220)))
(assert (= "&" (CharAt var54 552)))
(assert (= "D" (CharAt var5 26)))
(assert (= ";" (CharAt var51 11)))
(assert (= "R" (CharAt var47 11)))
(assert (= "U" (CharAt var2 951)))
(assert (= "T" (CharAt var18 705)))
(assert (= "s" (CharAt var39 373)))
(assert (= "b" (CharAt var9 337)))
(assert (= "m" (CharAt var30 825)))
(assert (= "M" (CharAt var26 497)))
(assert (= "Z" (CharAt var8 723)))
(assert (= "7" (CharAt var18 124)))
(assert (= "o" (CharAt var14 741)))
(assert (= "%" (CharAt var29 766)))
(assert (= "a" (CharAt var23 213)))
(assert (= "m" (CharAt var54 562)))
(assert (= "E" (CharAt var31 809)))
(assert (= "$" (CharAt var16 286)))
(assert (= "/" (CharAt var6 723)))
(assert (= "g" (CharAt var30 264)))
(assert (= "W" (CharAt var12 989)))
(assert (= "9" (CharAt var32 628)))
(assert (= "0" (CharAt var56 257)))
(assert (= "8" (CharAt var28 454)))
(assert (= "7" (CharAt var38 597)))
(assert (= "," (CharAt var42 657)))
(assert (= "." (CharAt var52 749)))
(assert (= "*" (CharAt var25 2)))
(assert (= "h" (CharAt var36 588)))
(assert (= "K" (CharAt var59 135)))
(assert (= "j" (CharAt var1 453)))
(assert (= "I" (CharAt var49 821)))
(assert (= "~" (CharAt var29 329)))
(assert (= "h" (CharAt var52 650)))
(assert (= "A" (CharAt var18 154)))
(assert (= "w" (CharAt var2 115)))
(assert (= "P" (CharAt var21 571)))
(assert (= "[" (CharAt var30 716)))
(assert (= "*" (CharAt var40 100)))
(assert (= "o" (CharAt var53 605)))
(assert (= "q" (CharAt var19 847)))
(assert (= "D" (CharAt var10 38)))
(assert (= "x" (CharAt var58 182)))
(assert (= "M" (CharAt var3 589)))
(assert (= "?" (CharAt var18 163)))
(assert (= "I" (CharAt var36 612)))
(assert (= "y" (CharAt var4 314)))
(assert (= "x" (CharAt var46 796)))
(assert (= "v" (CharAt var45 864)))
(assert (= "<" (CharAt var20 976)))
(assert (= "A" (CharAt var33 296)))
(assert (= "M" (CharAt var49 965)))
(assert (= "H" (CharAt var51 888)))
(assert (= "}" (CharAt var34 261)))
(assert (= "1" (CharAt var40 139)))
(assert (= "'" (CharAt var16 908)))
(assert (= "h" (CharAt var8 175)))
(assert (= "," (CharAt var24 651)))
(assert (= "`" (CharAt var36 385)))
(assert (= "u" (CharAt var11 251)))
(assert (= "^" (CharAt var32 915)))
(assert (= "V" (CharAt var44 127)))
(assert (= ";" (CharAt var32 544)))
(assert (= "K" (CharAt var53 284)))
(assert (= "(" (CharAt var39 558)))
(assert (= "-" (CharAt var38 11)))
(assert (= "H" (CharAt var60 304)))
(assert (= "m" (CharAt var23 719)))
(assert (= "&" (CharAt var10 401)))
(assert (= "6" (CharAt var19 9)))
(assert (= "f" (CharAt var15 590)))
(assert (= "Y" (CharAt var2 884)))
(assert (= "b" (CharAt var32 863)))
(assert (= "/" (CharAt var8 931)))
(assert (= ";" (CharAt var51 235)))
(assert (= "!" (CharAt var55 136)))
(assert (= "K" (CharAt var27 27)))
(assert (= "`" (CharAt var43 362)))
(assert (= "9" (CharAt var46 989)))
(assert (= "," (CharAt var5 375)))
(assert (= "U" (CharAt var32 498)))
(assert (= "c" (CharAt var48 140)))
(assert (= "\\" (CharAt var36 210)))
(assert (= "y" (CharAt var38 71)))
(assert (= "8" (CharAt var24 680)))
(assert (= "+" (CharAt var55 708)))
(assert (= "4" (CharAt var58 704)))
(assert (= "e" (CharAt var4 138)))
(assert (= "i" (CharAt var39 578)))
(assert (= "/" (CharAt var34 128)))
(assert (= "m" (CharAt var34 349)))
(assert (= "o" (CharAt var32 518)))
(assert (= "Q" (CharAt var37 819)))
(assert (= "Z" (CharAt var51 364)))
(assert (= "a" (CharAt var48 898)))
(assert (= "b" (CharAt var51 434)))
(assert (= ";" (CharAt var4 1)))
(assert (= "{" (CharAt var6 120)))
(assert (= "F" (CharAt var26 351)))
(assert (= "5" (CharAt var11 891)))
(assert (= "y" (CharAt var13 836)))
(assert (= "B" (CharAt var14 380)))
(assert (= "C" (CharAt var2 591)))
(assert (= "m" (CharAt var49 649)))
(assert (= "w" (CharAt var31 926)))
(assert (= "M" (CharAt var36 397)))
(assert (= "$" (CharAt var49 310)))
(assert (= "}" (CharAt var60 840)))
(assert (= "'" (CharAt var13 969)))
(assert (= "&" (CharAt var43 990)))
(assert (= "5" (CharAt var16 7)))
(assert (= "|" (CharAt var54 734)))
(assert (= "Y" (CharAt var27 202)))
(assert (= "Y" (CharAt var57 342)))
(assert (= "^" (CharAt var48 254)))
(assert (= "(" (CharAt var52 919)))
(assert (= "Q" (CharAt var13 74)))
(assert (= "4" (CharAt var34 541)))
(assert (= "." (CharAt var6 692)))
(assert (= "Q" (CharAt var35 79)))
(assert (= "p" (CharAt var55 499)))
(assert (= "P" (CharAt var55 438)))
(assert (= "8" (CharAt var55 986)))
(assert (= "4" (CharAt var25 538)))
(assert (= "Q" (CharAt var10 995)))
(assert (= "I" (CharAt var18 990)))
(assert (= "B" (CharAt var10 545)))
(assert (= "P" (CharAt var35 160)))
(assert (= "8" (CharAt var4 956)))
(assert (= "B" (CharAt var53 176)))
(assert (= "k" (CharAt var49 469)))
(assert (= "C" (CharAt var46 611)))
(assert (= "d" (CharAt var17 849)))
(assert (= "z" (CharAt var41 411)))
(assert (= "p" (CharAt var31 792)))
(assert (= "Y" (CharAt var33 100)))
(assert (= "z" (CharAt var0 751)))
(assert (= "7" (CharAt var10 874)))
(assert (= "Q" (CharAt var50 963)))
(assert (= "{" (CharAt var9 371)))
(assert (= ":" (CharAt var46 635)))
(assert (= "u" (CharAt var7 80)))
(assert (= "$" (CharAt var56 476)))
(assert (= "1" (CharAt var15 973)))
(assert (= "g" (CharAt var31 244)))
(assert (= "-" (CharAt var37 982)))
(assert (= "G" (CharAt var24 916)))
(assert (= "J" (CharAt var35 795)))
(assert (= "\"" (CharAt var4 99)))
(assert (= "@" (CharAt var37 290)))
(assert (= "J" (CharAt var4 516)))
(assert (= "F" (CharAt var50 306)))
(assert (= "J" (CharAt var3 51)))
(assert (= "{" (CharAt var28 479)))
(assert (= "P" (CharAt var54 299)))
(assert (= "D" (CharAt var21 448)))
(assert (= "R" (CharAt var47 487)))
(assert (= "E" (CharAt var31 689)))
(assert (= "Q" (CharAt var53 416)))
(assert (= "k" (CharAt var3 590)))
(assert (= "o" (CharAt var29 634)))
(assert (= "$" (CharAt var52 33)))
(assert (= "r" (CharAt var7 410)))
(assert (= "{" (CharAt var30 700)))
(assert (= "%" (CharAt var0 455)))
(assert (= "<" (CharAt var22 312)))
(assert (= ";" (CharAt var23 138)))
(assert (= "w" (CharAt var50 1000)))
(assert (= "h" (CharAt var4 653)))
(assert (= "N" (CharAt var17 789)))
(assert (= "i" (CharAt var52 460)))
(assert (= "0" (CharAt var44 148)))
(assert (= "4" (CharAt var3 986)))
(assert (= "k" (CharAt var52 287)))
(assert (= "H" (CharAt var59 504)))
(assert (= "p" (CharAt var40 66)))
(assert (= "D" (CharAt var49 278)))
(assert (= "b" (CharAt var59 481)))
(assert (= "l" (CharAt var7 803)))
(assert (= ":" (CharAt var47 158)))
(assert (= "v" (CharAt var14 372)))
(assert (= "u" (CharAt var43 401)))
(assert (= "5" (CharAt var36 130)))
(assert (= "!" (CharAt var25 405)))
(assert (= "U" (CharAt var32 469)))
(assert (= "A" (CharAt var22 699)))
(assert (= "M" (CharAt var36 605)))
(assert (= "#" (CharAt var19 574)))
(assert (= "0" (CharAt var11 802)))
(assert (= "W" (CharAt var24 880)))
(assert (= ")" (CharAt var23 37)))
(assert (= "@" (CharAt var9 412)))
(assert (= "l" (CharAt var47 807)))
(assert (= "d" (CharAt var1 354)))
(assert (= "," (CharAt var28 152)))
(assert (= "$" (CharAt var12 766)))
(assert (= "9" (CharAt var21 215)))
(assert (= "!" (CharAt var31 599)))
(assert (= "=" (CharAt var43 488)))
(assert (= "/" (CharAt var45 548)))
(assert (= "Y" (CharAt var27 186)))
(assert (= "o" (CharAt var11 135)))
(assert (= "Q" (CharAt var22 124)))
(assert (= "0" (CharAt var57 740)))
(assert (= "w" (CharAt var50 86)))
(assert (= "I" (CharAt var60 1000)))
(assert (= "y" (CharAt var57 918)))
(assert (= "e" (CharAt var29 533)))
(assert (= ">" (CharAt var35 43)))
(assert (= "u" (CharAt var6 656)))
(assert (= "p" (CharAt var44 50)))
(assert (= "u" (CharAt var55 726)))
(check-sat)